NAME : vmtsp.-9200000.tour
COMMENT : Length = -9200000
COMMENT : Found by LKH [Keld Helsgaun] Sat Dec 23 11:30:45 2023
TYPE : TOUR
DIMENSION : 92
TOUR_SECTION
1
27
90
61
87
50
86
55
77
75
10
76
3
32
13
9
34
49
22
42
53
36
56
66
74
83
70
15
17
82
72
11
41
85
37
46
59
89
33
92
21
40
14
57
79
88
81
29
73
78
38
23
48
30
24
58
6
2
31
60
80
84
52
44
91
64
69
45
35
63
25
43
4
20
71
8
26
12
5
65
51
67
54
18
39
19
62
47
28
16
68
7
-1
EOF
